50
1000
396
394
394
392
387
387
384
367
366
365
364
363
362
361
358
356
351
350
346
340
339
337
335
333
332
332
328
327
324
323
323
322
320
317
314
312
310
308
307
306
306
304
303
299
295
292
288
283
282
277
